# Solution for model subproblem_model
# Objective value = 15974
_eta 15974
_z[81] 0
_z[171] 1
_z[69] 1
_z[114] 0
_z[20] 1
_z[145] 0
_z[92] 0
_z[110] 0
_z[122] 1
_z[137] 0
_z[56] 0
_z[100] 1
_z[173] 0
_z[9] 0
_z[88] 0
_z[36] 1
_z[149] 0
_z[66] 1
_z[191] 0
_z[14] 0
_z[159] 1
_z[6] 0
_z[26] 0
_z[119] 0
_z[164] 0
_z[86] 1
_z[61] 0
_z[165] 0
_z[147] 0
_z[136] 0
_z[31] 1
_z[53] 0
_z[168] 1
_z[167] 0
_z[45] 0
_z[193] 0
_z[197] 1
_z[108] 0
_z[148] 0
_z[33] 0
_z[83] 1
_z[163] 0
_z[49] 1
_z[151] 1
_z[60] 0
_z[186] 0
_z[156] 0
_z[155] 0
_z[172] 0
_z[2] 1
_z[180] 0
_z[150] 1
_z[91] 1
_z[68] 0
_z[29] 0
_z[178] 0
_z[95] 0
_z[90] 0
_z[111] 0
_z[13] 1
_z[154] 1
_z[3] 0
_z[55] 0
_z[120] 1
_z[80] 0
_z[131] 0
_z[87] 0
_z[130] 0
_z[158] 0
_z[146] 0
_z[93] 1
_z[12] 0
_z[161] 0
_z[140] 0
_z[54] 0
_z[41] 1
_z[52] 0
_z[82] 0
_z[47] 0
_z[135] 0
_z[198] 0
_z[44] 0
_z[153] 0
_z[128] 0
_z[104] 0
_z[109] 1
_z[185] 1
_z[30] 0
_z[71] 0
_z[176] 0
_z[196] 0
_z[21] 0
_z[96] 1
_z[72] 0
_z[94] 0
_z[18] 0
_z[189] 0
_z[169] 0
_z[28] 1
_z[129] 0
_z[8] 0
_z[144] 0
_z[58] 0
_z[106] 0
_z[35] 0
_z[123] 0
_z[160] 0
_z[97] 1
_z[134] 0
_z[166] 0
_z[157] 0
_z[117] 0
_z[170] 0
_z[57] 1
_z[10] 0
_z[126] 0
_z[39] 0
_z[63] 0
_z[19] 0
_z[75] 1
_z[142] 0
_z[152] 1
_z[59] 0
_z[64] 0
_z[62] 0
_z[112] 0
_z[46] 0
_z[15] 0
_z[24] 0
_z[17] 0
_z[175] 0
_z[101] 0
_z[127] 0
_z[105] 0
_z[115] 1
_z[89] 0
_z[77] 0
_z[25] 0
_z[70] 0
_z[182] 0
_z[1] 1
_z[48] 0
_z[192] 1
_z[40] 0
_z[67] 0
_z[187] 0
_z[139] 0
_z[107] 0
_z[188] 0
_z[85] 1
_z[116] 0
_z[181] 0
_z[84] 1
_z[37] 0
_z[34] 0
_z[174] 0
_z[99] 0
_z[43] 0
_z[133] 0
_z[179] 1
_z[51] 0
_z[11] 0
_z[103] 1
_z[4] 0
_z[177] 0
_z[16] 1
_z[138] 0
_z[194] 1
_z[76] 0
_z[32] 1
_z[5] 0
_z[124] 0
_z[79] 1
_z[143] 0
_z[50] 0
_z[162] 0
_z[190] 0
_z[42] 0
_z[125] 1
_z[78] 0
_z[65] 0
_z[183] 0
_z[22] 1
_z[141] 0
_z[199] 0
_z[200] 0
_z[98] 1
_z[74] 0
_z[113] 0
_z[121] 0
_z[7] 0
_z[23] 0
_z[184] 0
_z[132] 0
_z[195] 0
_z[118] 1
_z[27] 0
_z[73] 0
_z[102] 0
_z[38] 0
